solution status: time limit reached
objective value:                                  181
$_50_y                                              1 	(obj:0)
$_50_z                                             12 	(obj:0)
$_19_y                                             -3 	(obj:0)
$_19_z                                              6 	(obj:0)
$_130_y                                            -3 	(obj:0)
$_130_z                                             5 	(obj:0)
$_26_z                                              7 	(obj:0)
$_57_y                                             -2 	(obj:0)
$_57_z                                              3 	(obj:0)
$_177_y                                            -4 	(obj:0)
$_177_z                                             9 	(obj:0)
$_186_y                                            -1 	(obj:0)
$_186_z                                             8 	(obj:0)
$_202_y                                            -5 	(obj:0)
$_202_z                                             9 	(obj:0)
$_218_y                                            -4 	(obj:0)
$_218_z                                            11 	(obj:0)
$_140_y                                            -7 	(obj:0)
$_140_z                                             5 	(obj:0)
$_316_y                                            -4 	(obj:0)
$_316_z                                             6 	(obj:0)
$_27_y                                              2 	(obj:0)
$_27_z                                              7 	(obj:0)
$_260_y                                            -5 	(obj:0)
$_260_z                                             4 	(obj:0)
$_25_y                                             -3 	(obj:0)
$_25_z                                              9 	(obj:0)
$_228_y                                            -8 	(obj:0)
$_228_z                                             9 	(obj:0)
$_17_y                                             -4 	(obj:0)
$_17_z                                              7 	(obj:0)
$_244_y                                            -5 	(obj:0)
$_244_z                                             7 	(obj:0)
$_266_y                                            -5 	(obj:0)
$_266_z                                             5 	(obj:0)
$_225_y                                            -2 	(obj:0)
$_225_z                                             7 	(obj:0)
$_169_y                                            -1 	(obj:0)
$_169_z                                             9 	(obj:0)
$_196_y                                            -5 	(obj:0)
$_196_z                                            10 	(obj:0)
$_121_y                                            -7 	(obj:0)
$_121_z                                             6 	(obj:0)
$_209_y                                            -4 	(obj:0)
$_209_z                                             8 	(obj:0)
$_109_y                                            -3 	(obj:0)
$_109_z                                             7 	(obj:0)
$_273_z                                             9 	(obj:0)
$_282_y                                            -1 	(obj:0)
$_282_z                                             3 	(obj:0)
$_180_y                                            -1 	(obj:0)
$_180_z                                            10 	(obj:0)
$_289_y                                            -4 	(obj:0)
$_289_z                                            10 	(obj:0)
$_105_y                                            -1 	(obj:0)
$_105_z                                            11 	(obj:0)
$_79_y                                             -3 	(obj:0)
$_79_z                                              3 	(obj:0)
$_125_y                                            -1 	(obj:0)
$_125_z                                             4 	(obj:0)
$_21_y                                              1 	(obj:0)
$_21_z                                              6 	(obj:0)
$_22_y                                             -2 	(obj:0)
$_22_z                                              6 	(obj:0)
$_47_y                                             -4 	(obj:0)
$_47_z                                              3 	(obj:0)
$_28_y                                             -4 	(obj:0)
$_28_z                                              4 	(obj:0)
$_298_y                                            -2 	(obj:0)
$_298_z                                             4 	(obj:0)
$_54_y                                             -1 	(obj:0)
$_54_z                                             12 	(obj:0)
$_308_y                                            -2 	(obj:0)
$_308_z                                             5 	(obj:0)
$_69_y                                             -3 	(obj:0)
$_69_z                                              8 	(obj:0)
$_126_y                                            -2 	(obj:0)
$_126_z                                             8 	(obj:0)
$_72_y                                              2 	(obj:0)
$_72_z                                              8 	(obj:0)
$_176_y                                            -3 	(obj:0)
$_176_z                                            11 	(obj:0)
$_305_y                                            -6 	(obj:0)
$_305_z                                             7 	(obj:0)
$_23_z                                              3 	(obj:0)
$_76_y                                             -3 	(obj:0)
$_76_z                                             10 	(obj:0)
$_104_y                                             1 	(obj:0)
$_104_z                                             8 	(obj:0)
$_276_y                                            -5 	(obj:0)
$_276_z                                             6 	(obj:0)
$_241_y                                            -6 	(obj:0)
$_241_z                                             9 	(obj:0)
$_61_y                                              2 	(obj:0)
$_61_z                                              5 	(obj:0)
$_20_y                                              1 	(obj:0)
$_20_z                                              5 	(obj:0)
$_103_y                                            -7 	(obj:0)
$_103_z                                             7 	(obj:0)
$_257_y                                            -2 	(obj:0)
$_257_z                                             9 	(obj:0)
$_193_y                                            -5 	(obj:0)
$_193_z                                            11 	(obj:0)
$_46_y                                             -6 	(obj:0)
$_46_z                                              4 	(obj:0)
$_68_y                                             -6 	(obj:0)
$_68_z                                             10 	(obj:0)
$_250_y                                            -4 	(obj:0)
$_250_z                                             5 	(obj:0)
$_234_y                                            -8 	(obj:0)
$_234_z                                             7 	(obj:0)
$_83_y                                             -1 	(obj:0)
$_83_z                                              5 	(obj:0)
$_312_y                                            -1 	(obj:0)
$_312_z                                             6 	(obj:0)
$_24_y                                              2 	(obj:0)
$_24_z                                              6 	(obj:0)
$_212_y                                            -7 	(obj:0)
$_212_z                                             9 	(obj:0)
$_292_y                                            -5 	(obj:0)
$_292_z                                             3 	(obj:0)
x125                                                2 	(obj:1)
x126                                                2 	(obj:1)
x127                                                2 	(obj:1)
x128                                                2 	(obj:1)
x129                                                2 	(obj:1)
x130                                                2 	(obj:1)
x131                                                2 	(obj:1)
x132                                                2 	(obj:1)
x133                                                2 	(obj:1)
x134                                                2 	(obj:1)
x138                                                2 	(obj:1)
x139                                                2 	(obj:1)
x140                                                1 	(obj:1)
x148                                                2 	(obj:1)
x151                                                2 	(obj:1)
x155                                                1 	(obj:1)
x156                                                2 	(obj:1)
x157                                                2 	(obj:1)
x159                                                2 	(obj:1)
x161                                                2 	(obj:1)
x162                                                2 	(obj:1)
x163                                                2 	(obj:1)
x164                                                2 	(obj:1)
x165                                                1 	(obj:1)
x166                                                1 	(obj:1)
x167                                                2 	(obj:1)
x168                                                2 	(obj:1)
x169                                                1 	(obj:1)
x171                                                2 	(obj:1)
x172                                                2 	(obj:1)
x173                                                2 	(obj:1)
x174                                                2 	(obj:1)
x176                                                2 	(obj:1)
x179                                                2 	(obj:1)
x180                                                2 	(obj:1)
x181                                                2 	(obj:1)
x183                                                1 	(obj:1)
x184                                                1 	(obj:1)
x185                                                2 	(obj:1)
x186                                                1 	(obj:1)
x187                                                1 	(obj:1)
x189                                                2 	(obj:1)
x190                                                2 	(obj:1)
x191                                                2 	(obj:1)
x192                                                1 	(obj:1)
x193                                                1 	(obj:1)
x195                                                2 	(obj:1)
x197                                                2 	(obj:1)
x198                                                1 	(obj:1)
x199                                                2 	(obj:1)
x200                                                2 	(obj:1)
x203                                                2 	(obj:1)
x205                                                2 	(obj:1)
x206                                                2 	(obj:1)
x207                                                2 	(obj:1)
x209                                                1 	(obj:1)
x211                                                2 	(obj:1)
x213                                                1 	(obj:1)
x217                                                2 	(obj:1)
x218                                                1 	(obj:1)
x219                                                2 	(obj:1)
x221                                                2 	(obj:1)
x222                                                2 	(obj:1)
x223                                                2 	(obj:1)
x224                                                2 	(obj:1)
x225                                                2 	(obj:1)
x226                                                2 	(obj:1)
x227                                                2 	(obj:1)
x228                                                2 	(obj:1)
x229                                                2 	(obj:1)
x230                                                2 	(obj:1)
x231                                                2 	(obj:1)
x232                                                2 	(obj:1)
x233                                                2 	(obj:1)
x235                                                2 	(obj:1)
x237                                                2 	(obj:1)
x239                                                1 	(obj:1)
x240                                                1 	(obj:1)
x241                                                2 	(obj:1)
x245                                                2 	(obj:1)
x246                                                2 	(obj:1)
x253                                                2 	(obj:1)
x255                                                2 	(obj:1)
x256                                                2 	(obj:1)
x260                                                2 	(obj:1)
x261                                                2 	(obj:1)
x263                                                2 	(obj:1)
x264                                                1 	(obj:1)
x269                                                1 	(obj:1)
x271                                                2 	(obj:1)
x273                                                2 	(obj:1)
x275                                                2 	(obj:1)
x278                                                2 	(obj:1)
x281                                                1 	(obj:1)
x284                                                2 	(obj:1)
x291                                                2 	(obj:1)
x293                                                2 	(obj:1)
x295                                                2 	(obj:1)
x296                                                2 	(obj:1)
x300                                                2 	(obj:1)
x301                                                1 	(obj:1)
